s td 88 8 104
b 1 21 24 26
b 2 22 23 25
b 3 23 25 35
b 4 24 26 36
b 5 25 35 61
b 6 26 36 62
b 7 57 60 62
b 8 58 59 61
b 9 59 61 93
b 10 60 62 94
b 11 35 61 93
b 12 36 62 94
b 13 83 86 88
b 14 84 85 87
b 15 53 85 87
b 16 54 86 88
b 17 53 87 103
b 18 54 88 104
b 19 99 102 104
b 20 100 101 103
b 21 17 101 103
b 22 18 102 104
b 23 17 53 103
b 24 18 54 104
b 25 1 5 6 9 10 41 42 79
b 26 4 5 6 9 10 79
b 27 2 4 5 10 79
b 28 2 4 7 79
b 29 1 5 9 10 41 42 79 80
b 30 1 3 5 9 80
b 31 1 3 8 80
b 32 9 10 41 42 51 52 79 80
b 33 9 10 12 13 51 52
b 34 10 12 13 48 49 51 52
b 35 10 12 13 16 48 49 52
b 36 12 13 16 47 48 49 52
b 37 12 13 16 20 47 48 49
b 38 13 16 20 47 49 54
b 39 11 13 16 20 54
b 40 11 13 18 54
b 41 20 47 48 56
b 42 12 13 16 19 48 49 52
b 43 12 16 17 19 48 49 52
b 44 14 16 17 19
b 45 17 19 48 49 52 55
b 46 17 48 52 53 55
b 47 50 52 53 55
b 48 9 12 13 15
b 49 41 42 51 52 79 80 82
b 50 41 42 51 79 80 81 82
b 51 42 78 79 80 81 82
b 52 73 78 80 82
b 53 76 78 79 81
b 54 41 75 79 80 81 82
b 55 41 74 75 79 82
b 56 41 74 75 77
b 57 5 6 41 42 45 46 95 96
b 58 37 41 42 43 45 46 95 96
b 59 32 37 41 43 45 95 96
b 60 28 29 32 43 95 96
b 61 28 29 32 90 92 95 96
b 62 28 29 32 36 90 92 96
b 63 29 32 34 36 90 92 96
b 64 27 32 34 36
b 65 34 36 90 92 96 98
b 66 36 92 94 96 98
b 67 89 94 96 98
b 68 28 29 32 90 91 92 96
b 69 28 29 32 35 90 91 92
b 70 28 32 35 91 92 97
b 71 28 32 33 35 97
b 72 30 32 33 35
b 73 35 90 91 93
b 74 28 29 31 43
b 75 32 37 41 44 45
b 76 39 41 44 45
b 77 38 41 43 46
b 78 40 42 43 45
b 79 5 6 45 46 72 95 96
b 80 5 6 45 71 72 95 96
b 81 5 6 70 71 72 95 96
b 82 5 69 70 71 72 95 96
b 83 66 69 70 71 72 96
b 84 63 66 70 72 96
b 85 63 66 68 96
b 86 64 69 70 71 72 95
b 87 64 65 70 71 95
b 88 64 65 67 95
1 4
2 3
3 5
4 6
5 11
6 12
7 10
8 9
9 11
10 12
11 73
12 66
13 16
14 15
15 17
16 18
17 23
18 24
19 22
20 21
21 23
22 24
23 46
24 40
25 26
25 29
25 57
26 27
27 28
29 30
29 32
30 31
32 33
32 49
33 34
33 48
34 35
35 36
35 42
36 37
37 38
37 41
38 39
39 40
42 43
43 44
43 45
45 46
46 47
49 50
50 51
50 54
51 52
51 53
54 55
55 56
57 58
57 79
58 59
58 77
58 78
59 60
59 75
60 61
60 74
61 62
61 68
62 63
63 64
63 65
65 66
66 67
68 69
69 70
69 73
70 71
71 72
75 76
79 80
80 81
81 82
82 83
82 86
83 84
84 85
86 87
87 88
